\ LP format - for model browsing. Use MPS format to capture full model detail.
\ Signature: 0x789bb05a59703ab1
Minimize
  Cmax
Subject To
 assign_0_0: y_0_0_0 + y_1_0_0 = 1
 proc_time_0_0: Ps_0_0 - 17 y_0_0_0 - 25 y_1_0_0 = 0
 assign_0_1: y_3_0_1 + y_1_0_1 = 1
 proc_time_0_1: Ps_0_1 - 40 y_3_0_1 - 30 y_1_0_1 = 0
 assign_0_2: y_3_0_2 + y_2_0_2 = 1
 proc_time_0_2: Ps_0_2 - 150 y_3_0_2 - 160 y_2_0_2 = 0
 seq_0_0_to_1: t_0_0 + Ps_0_0 - t_0_1 <= 0
 seq_0_1_to_2: t_0_1 + Ps_0_1 - t_0_2 <= 0
 assign_1_0: y_0_1_0 + y_2_1_0 = 1
 proc_time_1_0: Ps_1_0 - 30 y_0_1_0 - 50 y_2_1_0 = 0
 assign_1_1: y_3_1_1 + y_1_1_1 = 1
 proc_time_1_1: Ps_1_1 - 55 y_3_1_1 - 66 y_1_1_1 = 0
 assign_1_2: y_3_1_2 + y_2_1_2 = 1
 proc_time_1_2: Ps_1_2 - 78 y_3_1_2 - 65 y_2_1_2 = 0
 seq_1_0_to_1: t_1_0 + Ps_1_0 - t_1_1 <= 0
 seq_1_1_to_2: t_1_1 + Ps_1_1 - t_1_2 <= 0
 assign_2_0: y_0_2_0 + y_1_2_0 = 1
 proc_time_2_0: Ps_2_0 - 56 y_0_2_0 - 62 y_1_2_0 = 0
 assign_2_1: y_1_2_1 + y_2_2_1 = 1
 proc_time_2_1: Ps_2_1 - 70 y_1_2_1 - 80 y_2_2_1 = 0
 assign_2_2: y_3_2_2 + y_2_2_2 = 1
 proc_time_2_2: Ps_2_2 - 90 y_3_2_2 - 100 y_2_2_2 = 0
 seq_2_0_to_1: t_2_0 + Ps_2_0 - t_2_1 <= 0
 seq_2_1_to_2: t_2_1 + Ps_2_1 - t_2_2 <= 0
 no_overlap1_0_0_0_1_0: t_0_0 + Ps_0_0 + 1984 y_0_0_0 - t_1_0
   + 1984 y_0_1_0 + 1984 z_0_0_0_1_0 <= 5952
 no_overlap2_0_0_0_1_0: - t_0_0 + 1984 y_0_0_0 + t_1_0 + Ps_1_0
   + 1984 y_0_1_0 - 1984 z_0_0_0_1_0 <= 3968
 no_overlap1_0_0_0_2_0: t_0_0 + Ps_0_0 + 1984 y_0_0_0 - t_2_0
   + 1984 y_0_2_0 + 1984 z_0_0_0_2_0 <= 5952
 no_overlap2_0_0_0_2_0: - t_0_0 + 1984 y_0_0_0 + t_2_0 + Ps_2_0
   + 1984 y_0_2_0 - 1984 z_0_0_0_2_0 <= 3968
 no_overlap1_0_1_0_2_0: t_1_0 + Ps_1_0 + 1984 y_0_1_0 - t_2_0
   + 1984 y_0_2_0 + 1984 z_0_1_0_2_0 <= 5952
 no_overlap2_0_1_0_2_0: - t_1_0 + 1984 y_0_1_0 + t_2_0 + Ps_2_0
   + 1984 y_0_2_0 - 1984 z_0_1_0_2_0 <= 3968
 no_overlap1_1_0_0_0_1: t_0_0 + Ps_0_0 + 1984 y_1_0_0 - t_0_1
   + 1984 y_1_0_1 + 1984 z_1_0_0_0_1 <= 5952
 no_overlap2_1_0_0_0_1: - t_0_0 + 1984 y_1_0_0 + t_0_1 + Ps_0_1
   + 1984 y_1_0_1 - 1984 z_1_0_0_0_1 <= 3968
 no_overlap1_1_0_0_1_1: t_0_0 + Ps_0_0 + 1984 y_1_0_0 - t_1_1
   + 1984 y_1_1_1 + 1984 z_1_0_0_1_1 <= 5952
 no_overlap2_1_0_0_1_1: - t_0_0 + 1984 y_1_0_0 + t_1_1 + Ps_1_1
   + 1984 y_1_1_1 - 1984 z_1_0_0_1_1 <= 3968
 no_overlap1_1_0_0_2_0: t_0_0 + Ps_0_0 + 1984 y_1_0_0 - t_2_0
   + 1984 y_1_2_0 + 1984 z_1_0_0_2_0 <= 5952
 no_overlap2_1_0_0_2_0: - t_0_0 + 1984 y_1_0_0 + t_2_0 + Ps_2_0
   + 1984 y_1_2_0 - 1984 z_1_0_0_2_0 <= 3968
 no_overlap1_1_0_0_2_1: t_0_0 + Ps_0_0 + 1984 y_1_0_0 - t_2_1
   + 1984 y_1_2_1 + 1984 z_1_0_0_2_1 <= 5952
 no_overlap2_1_0_0_2_1: - t_0_0 + 1984 y_1_0_0 + t_2_1 + Ps_2_1
   + 1984 y_1_2_1 - 1984 z_1_0_0_2_1 <= 3968
 no_overlap1_1_0_1_1_1: t_0_1 + Ps_0_1 + 1984 y_1_0_1 - t_1_1
   + 1984 y_1_1_1 + 1984 z_1_0_1_1_1 <= 5952
 no_overlap2_1_0_1_1_1: - t_0_1 + 1984 y_1_0_1 + t_1_1 + Ps_1_1
   + 1984 y_1_1_1 - 1984 z_1_0_1_1_1 <= 3968
 no_overlap1_1_0_1_2_0: t_0_1 + Ps_0_1 + 1984 y_1_0_1 - t_2_0
   + 1984 y_1_2_0 + 1984 z_1_0_1_2_0 <= 5952
 no_overlap2_1_0_1_2_0: - t_0_1 + 1984 y_1_0_1 + t_2_0 + Ps_2_0
   + 1984 y_1_2_0 - 1984 z_1_0_1_2_0 <= 3968
 no_overlap1_1_0_1_2_1: t_0_1 + Ps_0_1 + 1984 y_1_0_1 - t_2_1
   + 1984 y_1_2_1 + 1984 z_1_0_1_2_1 <= 5952
 no_overlap2_1_0_1_2_1: - t_0_1 + 1984 y_1_0_1 + t_2_1 + Ps_2_1
   + 1984 y_1_2_1 - 1984 z_1_0_1_2_1 <= 3968
 no_overlap1_1_1_1_2_0: t_1_1 + Ps_1_1 + 1984 y_1_1_1 - t_2_0
   + 1984 y_1_2_0 + 1984 z_1_1_1_2_0 <= 5952
 no_overlap2_1_1_1_2_0: - t_1_1 + 1984 y_1_1_1 + t_2_0 + Ps_2_0
   + 1984 y_1_2_0 - 1984 z_1_1_1_2_0 <= 3968
 no_overlap1_1_1_1_2_1: t_1_1 + Ps_1_1 + 1984 y_1_1_1 - t_2_1
   + 1984 y_1_2_1 + 1984 z_1_1_1_2_1 <= 5952
 no_overlap2_1_1_1_2_1: - t_1_1 + 1984 y_1_1_1 + t_2_1 + Ps_2_1
   + 1984 y_1_2_1 - 1984 z_1_1_1_2_1 <= 3968
 no_overlap1_1_2_0_2_1: t_2_0 + Ps_2_0 + 1984 y_1_2_0 - t_2_1
   + 1984 y_1_2_1 + 1984 z_1_2_0_2_1 <= 5952
 no_overlap2_1_2_0_2_1: - t_2_0 + 1984 y_1_2_0 + t_2_1 + Ps_2_1
   + 1984 y_1_2_1 - 1984 z_1_2_0_2_1 <= 3968
 no_overlap1_2_0_2_1_0: t_0_2 + Ps_0_2 + 1984 y_2_0_2 - t_1_0
   + 1984 y_2_1_0 + 1984 z_2_0_2_1_0 <= 5952
 no_overlap2_2_0_2_1_0: - t_0_2 + 1984 y_2_0_2 + t_1_0 + Ps_1_0
   + 1984 y_2_1_0 - 1984 z_2_0_2_1_0 <= 3968
 no_overlap1_2_0_2_1_2: t_0_2 + Ps_0_2 + 1984 y_2_0_2 - t_1_2
   + 1984 y_2_1_2 + 1984 z_2_0_2_1_2 <= 5952
 no_overlap2_2_0_2_1_2: - t_0_2 + 1984 y_2_0_2 + t_1_2 + Ps_1_2
   + 1984 y_2_1_2 - 1984 z_2_0_2_1_2 <= 3968
 no_overlap1_2_0_2_2_1: t_0_2 + Ps_0_2 + 1984 y_2_0_2 - t_2_1
   + 1984 y_2_2_1 + 1984 z_2_0_2_2_1 <= 5952
 no_overlap2_2_0_2_2_1: - t_0_2 + 1984 y_2_0_2 + t_2_1 + Ps_2_1
   + 1984 y_2_2_1 - 1984 z_2_0_2_2_1 <= 3968
 no_overlap1_2_0_2_2_2: t_0_2 + Ps_0_2 + 1984 y_2_0_2 - t_2_2
   + 1984 y_2_2_2 + 1984 z_2_0_2_2_2 <= 5952
 no_overlap2_2_0_2_2_2: - t_0_2 + 1984 y_2_0_2 + t_2_2 + Ps_2_2
   + 1984 y_2_2_2 - 1984 z_2_0_2_2_2 <= 3968
 no_overlap1_2_1_0_1_2: t_1_0 + Ps_1_0 + 1984 y_2_1_0 - t_1_2
   + 1984 y_2_1_2 + 1984 z_2_1_0_1_2 <= 5952
 no_overlap2_2_1_0_1_2: - t_1_0 + 1984 y_2_1_0 + t_1_2 + Ps_1_2
   + 1984 y_2_1_2 - 1984 z_2_1_0_1_2 <= 3968
 no_overlap1_2_1_0_2_1: t_1_0 + Ps_1_0 + 1984 y_2_1_0 - t_2_1
   + 1984 y_2_2_1 + 1984 z_2_1_0_2_1 <= 5952
 no_overlap2_2_1_0_2_1: - t_1_0 + 1984 y_2_1_0 + t_2_1 + Ps_2_1
   + 1984 y_2_2_1 - 1984 z_2_1_0_2_1 <= 3968
 no_overlap1_2_1_0_2_2: t_1_0 + Ps_1_0 + 1984 y_2_1_0 - t_2_2
   + 1984 y_2_2_2 + 1984 z_2_1_0_2_2 <= 5952
 no_overlap2_2_1_0_2_2: - t_1_0 + 1984 y_2_1_0 + t_2_2 + Ps_2_2
   + 1984 y_2_2_2 - 1984 z_2_1_0_2_2 <= 3968
 no_overlap1_2_1_2_2_1: t_1_2 + Ps_1_2 + 1984 y_2_1_2 - t_2_1
   + 1984 y_2_2_1 + 1984 z_2_1_2_2_1 <= 5952
 no_overlap2_2_1_2_2_1: - t_1_2 + 1984 y_2_1_2 + t_2_1 + Ps_2_1
   + 1984 y_2_2_1 - 1984 z_2_1_2_2_1 <= 3968
 no_overlap1_2_1_2_2_2: t_1_2 + Ps_1_2 + 1984 y_2_1_2 - t_2_2
   + 1984 y_2_2_2 + 1984 z_2_1_2_2_2 <= 5952
 no_overlap2_2_1_2_2_2: - t_1_2 + 1984 y_2_1_2 + t_2_2 + Ps_2_2
   + 1984 y_2_2_2 - 1984 z_2_1_2_2_2 <= 3968
 no_overlap1_2_2_1_2_2: t_2_1 + Ps_2_1 + 1984 y_2_2_1 - t_2_2
   + 1984 y_2_2_2 + 1984 z_2_2_1_2_2 <= 5952
 no_overlap2_2_2_1_2_2: - t_2_1 + 1984 y_2_2_1 + t_2_2 + Ps_2_2
   + 1984 y_2_2_2 - 1984 z_2_2_1_2_2 <= 3968
 no_overlap1_3_0_1_0_2: t_0_1 + Ps_0_1 + 1984 y_3_0_1 - t_0_2
   + 1984 y_3_0_2 + 1984 z_3_0_1_0_2 <= 5952
 no_overlap2_3_0_1_0_2: - t_0_1 + 1984 y_3_0_1 + t_0_2 + Ps_0_2
   + 1984 y_3_0_2 - 1984 z_3_0_1_0_2 <= 3968
 no_overlap1_3_0_1_1_1: t_0_1 + Ps_0_1 + 1984 y_3_0_1 - t_1_1
   + 1984 y_3_1_1 + 1984 z_3_0_1_1_1 <= 5952
 no_overlap2_3_0_1_1_1: - t_0_1 + 1984 y_3_0_1 + t_1_1 + Ps_1_1
   + 1984 y_3_1_1 - 1984 z_3_0_1_1_1 <= 3968
 no_overlap1_3_0_1_1_2: t_0_1 + Ps_0_1 + 1984 y_3_0_1 - t_1_2
   + 1984 y_3_1_2 + 1984 z_3_0_1_1_2 <= 5952
 no_overlap2_3_0_1_1_2: - t_0_1 + 1984 y_3_0_1 + t_1_2 + Ps_1_2
   + 1984 y_3_1_2 - 1984 z_3_0_1_1_2 <= 3968
 no_overlap1_3_0_1_2_2: t_0_1 + Ps_0_1 + 1984 y_3_0_1 - t_2_2
   + 1984 y_3_2_2 + 1984 z_3_0_1_2_2 <= 5952
 no_overlap2_3_0_1_2_2: - t_0_1 + 1984 y_3_0_1 + t_2_2 + Ps_2_2
   + 1984 y_3_2_2 - 1984 z_3_0_1_2_2 <= 3968
 no_overlap1_3_0_2_1_1: t_0_2 + Ps_0_2 + 1984 y_3_0_2 - t_1_1
   + 1984 y_3_1_1 + 1984 z_3_0_2_1_1 <= 5952
 no_overlap2_3_0_2_1_1: - t_0_2 + 1984 y_3_0_2 + t_1_1 + Ps_1_1
   + 1984 y_3_1_1 - 1984 z_3_0_2_1_1 <= 3968
 no_overlap1_3_0_2_1_2: t_0_2 + Ps_0_2 + 1984 y_3_0_2 - t_1_2
   + 1984 y_3_1_2 + 1984 z_3_0_2_1_2 <= 5952
 no_overlap2_3_0_2_1_2: - t_0_2 + 1984 y_3_0_2 + t_1_2 + Ps_1_2
   + 1984 y_3_1_2 - 1984 z_3_0_2_1_2 <= 3968
 no_overlap1_3_0_2_2_2: t_0_2 + Ps_0_2 + 1984 y_3_0_2 - t_2_2
   + 1984 y_3_2_2 + 1984 z_3_0_2_2_2 <= 5952
 no_overlap2_3_0_2_2_2: - t_0_2 + 1984 y_3_0_2 + t_2_2 + Ps_2_2
   + 1984 y_3_2_2 - 1984 z_3_0_2_2_2 <= 3968
 no_overlap1_3_1_1_1_2: t_1_1 + Ps_1_1 + 1984 y_3_1_1 - t_1_2
   + 1984 y_3_1_2 + 1984 z_3_1_1_1_2 <= 5952
 no_overlap2_3_1_1_1_2: - t_1_1 + 1984 y_3_1_1 + t_1_2 + Ps_1_2
   + 1984 y_3_1_2 - 1984 z_3_1_1_1_2 <= 3968
 no_overlap1_3_1_1_2_2: t_1_1 + Ps_1_1 + 1984 y_3_1_1 - t_2_2
   + 1984 y_3_2_2 + 1984 z_3_1_1_2_2 <= 5952
 no_overlap2_3_1_1_2_2: - t_1_1 + 1984 y_3_1_1 + t_2_2 + Ps_2_2
   + 1984 y_3_2_2 - 1984 z_3_1_1_2_2 <= 3968
 no_overlap1_3_1_2_2_2: t_1_2 + Ps_1_2 + 1984 y_3_1_2 - t_2_2
   + 1984 y_3_2_2 + 1984 z_3_1_2_2_2 <= 5952
 no_overlap2_3_1_2_2_2: - t_1_2 + 1984 y_3_1_2 + t_2_2 + Ps_2_2
   + 1984 y_3_2_2 - 1984 z_3_1_2_2_2 <= 3968
 cmax_job_0: Cmax - t_0_2 - Ps_0_2 >= 0
 cmax_job_1: Cmax - t_1_2 - Ps_1_2 >= 0
 cmax_job_2: Cmax - t_2_2 - Ps_2_2 >= 0
Bounds
Binaries
 y_0_0_0 y_1_0_0 y_3_0_1 y_1_0_1 y_3_0_2 y_2_0_2 y_0_1_0 y_2_1_0 y_3_1_1
 y_1_1_1 y_3_1_2 y_2_1_2 y_0_2_0 y_1_2_0 y_1_2_1 y_2_2_1 y_3_2_2 y_2_2_2
 z_0_0_0_1_0 z_0_0_0_2_0 z_0_1_0_2_0 z_1_0_0_0_1 z_1_0_0_1_1 z_1_0_0_2_0
 z_1_0_0_2_1 z_1_0_1_1_1 z_1_0_1_2_0 z_1_0_1_2_1 z_1_1_1_2_0 z_1_1_1_2_1
 z_1_2_0_2_1 z_2_0_2_1_0 z_2_0_2_1_2 z_2_0_2_2_1 z_2_0_2_2_2 z_2_1_0_1_2
 z_2_1_0_2_1 z_2_1_0_2_2 z_2_1_2_2_1 z_2_1_2_2_2 z_2_2_1_2_2 z_3_0_1_0_2
 z_3_0_1_1_1 z_3_0_1_1_2 z_3_0_1_2_2 z_3_0_2_1_1 z_3_0_2_1_2 z_3_0_2_2_2
 z_3_1_1_1_2 z_3_1_1_2_2 z_3_1_2_2_2
End
